0,177,134,37,135,197,45,23,31,199,191
177,0,83,111,75,21,173,87,153,31,44
134,83,0,166,21,197,116,123,102,106,156
37,111,166,0,70,106,101,92,172,174,135
135,75,21,70,0,21,26,102,31,106,173
197,21,197,106,21,0,38,176,42,26,111
45,173,116,101,26,38,0,188,57,109,186
23,87,123,92,102,176,188,0,164,90,116
31,153,102,172,31,42,57,164,0,26,129
199,31,106,174,106,26,109,90,26,0,155
191,44,156,135,173,111,186,116,129,155,0
